
Gurobi 11.0.2 (win64) logging started Tue Nov 26 03:05:14 2024

Set parameter LogFile to value ".\Experiments\Verification_16_eps0.0001_2\Logs\vit_6_2_6_12_i4_r1_c3.log"
Set parameter TimeLimit to value 43200
Gurobi Optimizer version 11.0.2 build v11.0.2rc0 (win64 - Windows 10.0 (19045.2))

CPU model: Intel(R) Core(TM) i7-10750H CPU @ 2.60GHz, instruction set [SSE2|AVX|AVX2]
Thread count: 6 physical cores, 12 logical processors, using up to 12 threads

Optimize a model with 2925 rows, 4537 columns and 10536 nonzeros
Model fingerprint: 0x4edab141
Model has 1238 quadratic constraints
Model has 420 general constraints
Variable types: 4237 continuous, 300 integer (300 binary)
Coefficient statistics:
  Matrix range     [1e-05, 1e+02]
  QMatrix range    [1e+00, 1e+00]
  QLMatrix range   [1e+00, 1e+00]
  Objective range  [1e+00, 1e+00]
  Bounds range     [1e-05, 1e+03]
  RHS range        [1e-04, 1e+02]
  QRHS range       [1e-06, 1e-06]
Presolve removed 1773 rows and 1996 columns
Presolve time: 0.06s
Presolved: 6825 rows, 2542 columns, 20075 nonzeros
Presolved model has 1113 bilinear constraint(s)
Presolved model has 273 nonlinear constraint(s)

Solving non-convex MINLP

Variable types: 2315 continuous, 227 integer (227 binary)

Root relaxation: objective 4.100561e+01, 3130 iterations, 0.26 seconds (0.22 work units)

    Nodes    |    Current Node    |     Objective Bounds      |     Work
 Expl Unexpl |  Obj  Depth IntInf | Incumbent    BestBd   Gap | It/Node Time

     0     0   41.00561    0  874          -   41.00561      -     -    0s
     0     0   41.00561    0  873          -   41.00561      -     -    1s
     0     0   41.00561    0  853          -   41.00561      -     -    1s
     0     0   41.00561    0  866          -   41.00561      -     -    1s
     0     0   41.00561    0  865          -   41.00561      -     -    1s
     0     0   41.00561    0  849          -   41.00561      -     -    2s
     0     0   41.00561    0  845          -   41.00561      -     -    2s
     0     0   41.00561    0  860          -   41.00561      -     -    3s
     0     0   41.00561    0  849          -   41.00561      -     -    3s
     0     0   41.00561    0  842          -   41.00561      -     -    3s
     0     0   41.00560    0  960          -   41.00560      -     -   10s
     0     2   41.00560    0  960          -   41.00560      -     -   24s
     3     6   41.00560    2  985          -   41.00560      -  2485   25s
    37    42   41.00560    8  949          -   41.00560      -  1709   30s
    55    80   41.00560   11  938          -   41.00560      -  1573   35s
    81   144 infeasible   16               -   41.00560      -  1634   48s

Cutting planes:
  Learned: 10
  Implied bound: 19
  RLT: 47

Explored 159 nodes (224543 simplex iterations) in 48.30 seconds (44.35 work units)
Thread count was 12 (of 12 available processors)

Solution count 0

Solve interrupted
Best objective -, best bound 4.100559569182e+01, gap -
